c nombre: 38
c densidad: 0.5
p edges 20 93
e 1 2
e 1 3
e 1 6
e 1 7
e 1 8
e 1 9
e 1 10
e 1 11
e 1 15
e 1 17
e 1 20
e 2 4
e 2 5
e 2 8
e 2 9
e 2 10
e 2 11
e 2 12
e 2 15
e 3 4
e 3 5
e 3 7
e 3 10
e 3 11
e 3 12
e 3 13
e 3 14
e 3 17
e 3 18
e 3 19
e 4 6
e 4 11
e 4 12
e 4 13
e 4 14
e 4 16
e 4 17
e 4 20
e 5 6
e 5 8
e 5 11
e 5 12
e 5 13
e 5 14
e 5 15
e 5 17
e 5 18
e 5 19
e 5 20
e 6 7
e 6 8
e 6 13
e 6 14
e 6 16
e 6 18
e 6 19
e 7 15
e 7 16
e 7 19
e 8 9
e 8 12
e 8 14
e 8 15
e 9 14
e 9 15
e 9 18
e 9 19
e 9 20
e 10 11
e 10 14
e 10 16
e 10 18
e 10 19
e 11 12
e 11 14
e 11 15
e 11 17
e 11 18
e 12 13
e 12 14
e 12 17
e 12 19
e 13 14
e 13 19
e 14 19
e 14 20
e 15 16
e 15 17
e 15 18
e 16 20
e 17 18
e 17 19
e 18 19
